000 000 000 -99 -99 000 000 000 -99 -99 -99 -99 000 000 000 000 -99 -99 -99 000 000 000 000 000 000 000 -99 -99 -99 -99 -99
000 000 000 000 000 000 000 000 -99 -99 -99 -99 -99 000 000 000 -99 -99 -99 000 000 000 000 000 000 000 -99 -99 -99 -99 -99
-99 000 000 000 000 000 000 -99 000 000 -99 -99 -99 -99 000 000 000 -99 -99 -99 000 000 000 000 000 000 000 -99 -99 -99 005
000 000 000 000 000 000 000 000 000 000 -99 -99 -99 -99 000 000 000 -99 -99 000 000 000 000 000 000 000 000 013 006 031 001
000 000 000 000 000 000 000 000 000 000 -99 -99 000 000 000 000 -99 000 -99 -99 000 000 000 000 000 001 002 004 -99 -99 000
000 000 000 000 000 000 000 000 000 000 -99 -99 000 -99 000 -99 -99 -99 -99 -99 -99 000 000 000 000 000 -99 003 -99 -99 -99
000 000 000 -99 000 -99 -99 000 000 000 000 -99 000 000 -99 -99 -99 000 -99 -99 -99 -99 000 000 000 000 -99 -99 -99 -99 -99
000 000 000 000 -99 -99 -99 -99 -99 000 000 -99 000 -99 -99 -99 000 000 000 -99 -99 -99 000 -99 -99 -99 -99 -99 -99 -99 -99
000 000 000 000 -99 -99 -99 000 000 000 000 000 000 -99 -99 000 000 000 000 -99 000 -99 -99 -99 -99 -99 -99 -99 -99 -99 -99
000 000 000 000 000 -99 000 000 000 000 000 000 000 -99 000 000 -99 000 000 -99 000 000 -99 -99 -99 -99 -99 -99 -99 -99 -99
000 000 000 000 000 -99 000 000 000 000 000 000 000 -99 -99 000 000 000 000 -99 000 000 -99 -99 -99 -99 -99 -99 -99 -99 -99
000 000 000 000 000 000 000 000 000 000 000 000 000 -99 -99 000 000 -99 -99 -99 000 000 -99 -99 -99 -99 -99 000 -99 -99 -99
000 000 000 000 000 000 000 000 000 000 000 000 000 -99 -99 000 000 -99 -99 -99 -99 000 -99 -99 -99 -99 000 000 -99 -99 -99
000 000 000 000 000 000 000 000 -99 000 000 000 000 -99 -99 000 000 000 000 000 -99 -99 -99 -99 -99 -99 000 000 -99 -99 -99
000 -99 000 000 000 000 000 -99 -99 -99 -99 000 000 000 -99 000 000 000 000 -99 -99 000 -99 -99 000 000 000 000 -99 -99 -99
000 -99 000 000 000 000 000 000 000 -99 -99 -99 000 -99 -99 000 000 -99 000 000 -99 000 -99 -99 000 000 000 -99 -99 -99 -99
-99 -99 000 000 -99 000 000 000 000 -99 -99 -99 -99 000 000 000 000 000 000 000 -99 -99 000 000 000 000 000 000 -99 000 -99
000 -99 -99 -99 -99 -99 000 000 000 000 -99 -99 -99 000 000 000 000 000 000 -99 -99 000 000 -99 000 000 000 -99 -99 000 -99
000 000 000 000 -99 -99 000 000 000 -99 -99 -99 -99 000 000 000 000 000 000 -99 -99 000 000 -99 -99 -99 -99 -99 -99 -99 -99
000 000 000 000 -99 -99 000 000 000 000 000 -99 -99 000 000 000 000 000 000 000 -99 -99 000 -99 -99 -99 -99 -99 -99 -99 -99
000 000 000 000 000 000 -99 000 000 000 000 -99 -99 -99 000 000 000 000 000 000 000 000 000 -99 -99 -99 -99 -99 -99 -99 -99
000 000 000 000 000 000 -99 000 000 000 000 -99 -99 -99 000 000 000 000 000 000 000 000 000 -99 -99 -99 -99 -99 -99 -99 -99
000 000 000 000 000 000 -99 000 000 000 000 -99 -99 -99 000 000 000 000 000 000 000 000 000 -99 -99 -99 -99 -99 -99 -99 -99
000 000 000 000 000 000 000 000 000 -99 -99 -99 -99 000 000 000 000 000 000 000 000 000 000 -99 -99 -99 -99 -99 -99 -99 -99
000 000 000 000 000 000 000 000 000 -99 -99 -99 -99 000 000 000 000 000 000 000 000 000 -99 -99 -99 -99 -99 -99 -99 -99 -99
000 000 000 000 000 000 000 000 000 000 -99 -99 000 000 000 000 000 000 000 000 000 000 -99 -99 -99 -99 -99 -99 -99 -99 -99
000 000 000 000 000 000 000 000 000 000 000 -99 -99 000 000 000 000 000 000 000 000 000 000 -99 -99 -99 -99 -99 -99 -99 -99
000 000 000 000 000 000 000 000 000 000 -99 -99 -99 000 000 000 000 000 000 000 000 000 000 -99 -99 -99 -99 -99 -99 -99 -99
000 000 000 000 000 000 000 000 000 000 000 -99 -99 000 000 000 000 000 000 000 000 000 -99 -99 -99 -99 -99 -99 -99 -99 -99
000 000 000 000 000 000 000 000 000 000 000 -99 -99 000 000 000 000 000 000 -99 000 000 -99 -99 -99 -99 -99 -99 -99 -99 -99
000 000 000 000 000 000 000 000 000 000 000 -99 -99 000 000 000 000 -99 000 -99 -99 -99 -99 -99 -99 -99 -99 -99 -99 -99 -99
000 000 000 000 000 -99 000 000 000 000 000 -99 -99 000 000 000 000 000 -99 -99 -99 -99 -99 -99 -99 -99 -99 -99 -99 -99 -99
000 000 000 000 000 000 000 000 000 000 000 -99 -99 000 000 -99 000 000 -99 -99 -99 -99 -99 -99 -99 -99 -99 000 000 000 -99
000 000 000 000 000 000 000 000 000 000 -99 -99 -99 000 000 000 000 000 000 000 000 000 -99 -99 -99 -99 -99 000 000 000 -99
000 000 000 000 000 000 000 000 000 000 -99 -99 000 000 000 000 000 -99 000 000 000 -99 -99 000 000 000 000 000 000 000 000
000 000 000 000 000 000 000 000 000 000 000 -99 000 000 000 000 000 -99 000 000 000 -99 -99 000 000 000 000 000 000 000 000
000 000 000 000 000 000 000 000 000 000 000 000 000 000 000 000 000 -99 000 000 000 -99 -99 000 000 000 000 000 000 000 000
000 000 -99 -99 000 000 000 000 000 000 -99 000 000 000 000 000 000 000 000 000 -99 -99 -99 000 000 000 000 000 000 000 000
000 000 000 -99 000 000 000 000 -99 -99 -99 000 000 000 000 000 000 000 -99 000 -99 -99 000 000 000 000 000 000 -99 000 000
000 000 000 000 000 000 000 000 -99 -99 -99 000 000 000 000 000 000 000 -99 -99 000 000 000 000 000 000 000 000 000 000 000
-99 000 000 000 000 000 000 000 -99 -99 000 000 000 000 000 000 000 000 000 000 000 000 000 000 000 000 000 000 000 000 -99
-99 -99 000 000 -99 000 000 -99 -99 000 000 000 000 000 000 000 000 000 000 000 000 000 000 000 000 000 000 000 000 000 -99
-99 000 000 -99 -99 000 000 -99 -99 000 000 000 000 000 000 000 000 000 000 000 000 000 000 000 000 000 000 000 000 -99 -99
-99 -99 000 -99 -99 -99 -99 -99 -99 000 000 000 000 000 000 000 000 000 000 000 000 001 000 000 000 000 000 000 -99 -99 000
000 000 -99 -99 -99 -99 -99 -99 -99 000 000 000 000 000 000 000 000 000 000 000 000 001 000 000 000 000 000 000 -99 -99 -99
000 000 -99 -99 000 -99 -99 -99 -99 -99 000 000 000 000 000 000 000 000 000 000 000 000 000 000 000 000 -99 -99 -99 -99 -99
000 -99 000 000 -99 -99 -99 -99 000 000 000 000 -99 -99 000 000 -99 000 000 000 000 000 000 000 000 000 -99 -99 -99 -99 -99
000 -99 -99 000 -99 -99 -99 000 -99 000 000 000 -99 -99 -99 -99 -99 000 000 000 000 000 001 001 000 -99 -99 -99 -99 -99 -99
000 -99 -99 -99 -99 -99 -99 -99 -99 000 000 000 -99 -99 -99 -99 000 000 000 000 000 002 006 000 000 -99 -99 -99 -99 -99 -99
-99 -99 -99 -99 -99 -99 -99 -99 000 000 000 000 000 000 -99 -99 000 000 000 000 000 008 005 001 000 -99 -99 -99 -99 -99 -99
-99 -99 -99 -99 -99 000 000 000 000 000 000 -99 000 000 -99 -99 000 000 000 000 001 006 002 000 -99 -99 -99 -99 -99 -99 -99
-99 -99 -99 -99 -99 000 000 000 000 000 000 000 000 -99 -99 -99 000 000 000 000 000 000 001 -99 -99 -99 -99 -99 -99 -99 -99
-99 -99 -99 -99 -99 000 000 000 000 000 000 000 000 -99 -99 -99 000 000 000 000 000 000 000 -99 -99 -99 -99 -99 -99 -99 -99
-99 -99 -99 -99 -99 -99 000 000 000 000 000 000 000 000 000 -99 000 000 000 000 000 000 -99 -99 -99 -99 -99 -99 -99 -99 -99
-99 -99 -99 -99 -99 -99 000 000 000 000 000 000 -99 000 000 000 000 000 000 000 000 -99 -99 -99 -99 -99 -99 -99 -99 -99 -99
